p cnf 208 512
4 9 14 0
-4 -9 0
-4 -14 0
-9 -14 0
37 19 28 0
-37 -19 0
-37 -28 0
-19 -28 0
38 21 30 0
-38 -21 0
-38 -30 0
-21 -30 0
39 23 32 0
-39 -23 0
-39 -32 0
-23 -32 0
-4 -193 -55 0
-4 -193 71 0
-9 -193 -71 0
-9 -193 87 0
-14 -193 -87 0
-14 -193 55 0
-55 -194 -60 0
-55 -194 76 0
-71 -194 -76 0
-71 -194 92 0
-87 -194 -92 0
-87 -194 60 0
-60 -195 -65 0
-60 -195 81 0
-76 -195 -81 0
-76 -195 97 0
-92 -195 -97 0
-92 -195 65 0
-65 -196 -70 0
-65 -196 86 0
-81 -196 -86 0
-81 -196 102 0
-97 -196 -102 0
-97 -196 70 0
-4 -197 -55 0
-4 -197 87 0
-9 -197 -71 0
-9 -197 55 0
-14 -197 -87 0
-14 -197 71 0
-55 -198 -60 0
-55 -198 92 0
-71 -198 -76 0
-71 -198 60 0
-87 -198 -92 0
-87 -198 76 0
-60 -199 -65 0
-60 -199 97 0
-76 -199 -81 0
-76 -199 65 0
-92 -199 -97 0
-92 -199 81 0
-65 -200 -70 0
-65 -200 102 0
-81 -200 -86 0
-81 -200 70 0
-97 -200 -102 0
-97 -200 86 0
-4 -19 -201 136 0
-9 -21 -201 143 0
-14 -23 -201 150 0
-55 -103 -202 138 0
-71 -110 -202 145 0
-87 -117 -202 152 0
-60 -105 -203 140 0
-76 -112 -203 147 0
-92 -119 -203 154 0
-65 -107 -204 142 0
-81 -114 -204 149 0
-97 -121 -204 156 0
-4 -205 103 0
-9 -205 110 0
-14 -205 117 0
-55 -206 105 0
-71 -206 112 0
-87 -206 119 0
-60 -207 107 0
-76 -207 114 0
-92 -207 121 0
-65 -208 109 0
-81 -208 116 0
-97 -208 123 0
-1 43 0
1 -43 0
-43 44 0
43 -44 0
-44 45 0
44 -45 0
-45 46 0
45 -46 0
-2 47 0
2 -47 0
-47 48 0
47 -48 0
-48 49 0
48 -49 0
-49 50 0
49 -50 0
-3 51 0
3 -51 0
-51 52 0
51 -52 0
-52 53 0
52 -53 0
-53 54 0
53 -54 0
-4 -193 5 0
-5 4 0
-5 193 0
-4 -197 6 0
-6 4 0
-6 197 0
5 6 -4 55 0
-14 -193 7 0
-7 14 0
-7 193 0
-9 -197 8 0
-8 9 0
-8 197 0
7 8 4 -55 0
-55 -194 56 0
-56 55 0
-56 194 0
-55 -198 57 0
-57 55 0
-57 198 0
56 57 -55 60 0
-87 -194 58 0
-58 87 0
-58 194 0
-71 -198 59 0
-59 71 0
-59 198 0
58 59 55 -60 0
-60 -195 61 0
-61 60 0
-61 195 0
-60 -199 62 0
-62 60 0
-62 199 0
61 62 -60 65 0
-92 -195 63 0
-63 92 0
-63 195 0
-76 -199 64 0
-64 76 0
-64 199 0
63 64 60 -65 0
-65 -196 66 0
-66 65 0
-66 196 0
-65 -200 67 0
-67 65 0
-67 200 0
66 67 -65 70 0
-97 -196 68 0
-68 97 0
-68 196 0
-81 -200 69 0
-69 81 0
-69 200 0
68 69 65 -70 0
-9 -193 10 0
-10 9 0
-10 193 0
-9 -197 11 0
-11 9 0
-11 197 0
10 11 -9 71 0
-4 -193 12 0
-12 4 0
-12 193 0
-14 -197 13 0
-13 14 0
-13 197 0
12 13 9 -71 0
-71 -194 72 0
-72 71 0
-72 194 0
-71 -198 73 0
-73 71 0
-73 198 0
72 73 -71 76 0
-55 -194 74 0
-74 55 0
-74 194 0
-87 -198 75 0
-75 87 0
-75 198 0
74 75 71 -76 0
-76 -195 77 0
-77 76 0
-77 195 0
-76 -199 78 0
-78 76 0
-78 199 0
77 78 -76 81 0
-60 -195 79 0
-79 60 0
-79 195 0
-92 -199 80 0
-80 92 0
-80 199 0
79 80 76 -81 0
-81 -196 82 0
-82 81 0
-82 196 0
-81 -200 83 0
-83 81 0
-83 200 0
82 83 -81 86 0
-65 -196 84 0
-84 65 0
-84 196 0
-97 -200 85 0
-85 97 0
-85 200 0
84 85 81 -86 0
-14 -193 15 0
-15 14 0
-15 193 0
-14 -197 16 0
-16 14 0
-16 197 0
15 16 -14 87 0
-9 -193 17 0
-17 9 0
-17 193 0
-4 -197 18 0
-18 4 0
-18 197 0
17 18 14 -87 0
-87 -194 88 0
-88 87 0
-88 194 0
-87 -198 89 0
-89 87 0
-89 198 0
88 89 -87 92 0
-71 -194 90 0
-90 71 0
-90 194 0
-55 -198 91 0
-91 55 0
-91 198 0
90 91 87 -92 0
-92 -195 93 0
-93 92 0
-93 195 0
-92 -199 94 0
-94 92 0
-94 199 0
93 94 -92 97 0
-76 -195 95 0
-95 76 0
-95 195 0
-60 -199 96 0
-96 60 0
-96 199 0
95 96 92 -97 0
-97 -196 98 0
-98 97 0
-98 196 0
-97 -200 99 0
-99 97 0
-99 200 0
98 99 -97 102 0
-81 -196 100 0
-100 81 0
-100 196 0
-65 -200 101 0
-101 65 0
-101 200 0
100 101 97 -102 0
-19 103 0
-4 -205 20 0
-20 4 0
-20 205 0
20 19 -103 0
-103 105 0
-55 -206 104 0
-104 55 0
-104 206 0
104 103 -105 0
-105 107 0
-60 -207 106 0
-106 60 0
-106 207 0
106 105 -107 0
-107 109 0
-65 -208 108 0
-108 65 0
-108 208 0
108 107 -109 0
-21 110 0
-9 -205 22 0
-22 9 0
-22 205 0
22 21 -110 0
-110 112 0
-71 -206 111 0
-111 71 0
-111 206 0
111 110 -112 0
-112 114 0
-76 -207 113 0
-113 76 0
-113 207 0
113 112 -114 0
-114 116 0
-81 -208 115 0
-115 81 0
-115 208 0
115 114 -116 0
-23 117 0
-14 -205 24 0
-24 14 0
-24 205 0
24 23 -117 0
-117 119 0
-87 -206 118 0
-118 87 0
-118 206 0
118 117 -119 0
-119 121 0
-92 -207 120 0
-120 92 0
-120 207 0
120 119 -121 0
-121 123 0
-97 -208 122 0
-122 97 0
-122 208 0
122 121 -123 0
-25 124 0
25 -124 0
-124 125 0
124 -125 0
-125 126 0
125 -126 0
-126 127 0
126 -127 0
-26 128 0
26 -128 0
-128 129 0
128 -129 0
-129 130 0
129 -130 0
-130 131 0
130 -131 0
-27 132 0
27 -132 0
-132 133 0
132 -133 0
-133 134 0
133 -134 0
-134 135 0
134 -135 0
-28 136 0
-4 -19 -201 29 0
-29 4 0
-29 19 0
-29 201 0
29 28 -136 0
-136 138 0
-55 -103 -202 137 0
-137 55 0
-137 103 0
-137 202 0
137 136 -138 0
-138 140 0
-60 -105 -203 139 0
-139 60 0
-139 105 0
-139 203 0
139 138 -140 0
-140 142 0
-65 -107 -204 141 0
-141 65 0
-141 107 0
-141 204 0
141 140 -142 0
-30 143 0
-9 -21 -201 31 0
-31 9 0
-31 21 0
-31 201 0
31 30 -143 0
-143 145 0
-71 -110 -202 144 0
-144 71 0
-144 110 0
-144 202 0
144 143 -145 0
-145 147 0
-76 -112 -203 146 0
-146 76 0
-146 112 0
-146 203 0
146 145 -147 0
-147 149 0
-81 -114 -204 148 0
-148 81 0
-148 114 0
-148 204 0
148 147 -149 0
-32 150 0
-14 -23 -201 33 0
-33 14 0
-33 23 0
-33 201 0
33 32 -150 0
-150 152 0
-87 -117 -202 151 0
-151 87 0
-151 117 0
-151 202 0
151 150 -152 0
-152 154 0
-92 -119 -203 153 0
-153 92 0
-153 119 0
-153 203 0
153 152 -154 0
-154 156 0
-97 -121 -204 155 0
-155 97 0
-155 121 0
-155 204 0
155 154 -156 0
-34 157 0
34 -157 0
-157 158 0
157 -158 0
-158 159 0
158 -159 0
-159 160 0
159 -160 0
-35 161 0
35 -161 0
-161 162 0
161 -162 0
-162 163 0
162 -163 0
-163 164 0
163 -164 0
-36 165 0
36 -165 0
-165 166 0
165 -166 0
-166 167 0
166 -167 0
-167 168 0
167 -168 0
-37 169 0
37 -169 0
-169 170 0
169 -170 0
-170 171 0
170 -171 0
-171 172 0
171 -172 0
-38 173 0
38 -173 0
-173 174 0
173 -174 0
-174 175 0
174 -175 0
-175 176 0
175 -176 0
-39 177 0
39 -177 0
-177 178 0
177 -178 0
-178 179 0
178 -179 0
-179 180 0
179 -180 0
-40 181 0
40 -181 0
-181 182 0
181 -182 0
-182 183 0
182 -183 0
-183 184 0
183 -184 0
-41 185 0
41 -185 0
-185 186 0
185 -186 0
-186 187 0
186 -187 0
-187 188 0
187 -188 0
-42 189 0
42 -189 0
-189 190 0
189 -190 0
-190 191 0
190 -191 0
-191 192 0
191 -192 0
-193 -197 0
-194 -198 0
-195 -199 0
-196 -200 0
